PROBLEM NAME: eil51_n5
KNAPSACK DATA TYPE: uncorrelated, similar weights
DIMENSION: 5
NUMBER OF ITEMS: 20
CAPACITY OF KNAPSACK: 181915
MIN SPEED: 0.1
MAX SPEED: 1
RENTING RATIO: 3.37
EDGE_WEIGHT_TYPE: CEIL_2D
NODE_COORD_SECTION	(INDEX, X, Y):
1	31	32
2	36	16
3	62	63
4	5	6
5	30	15
ITEMS SECTION	(INDEX, PROFIT, WEIGHT, ASSIGNED NODE NUMBER):
1	984	100092	3
2	955	100045	3
3	901	100058	3
4	882	100065	3
5	845	100014	3
6	795	100036	2
7	738	100006	2
8	715	100033	2
9	574	100043	2
10	485	100093	2
11	421	100091	5
12	367	100093	5
13	326	100005	5
14	322	100048	5
15	252	100021	5
16	248	100015	4
17	122	100066	4
18	94	100097	4
19	43	100056	4
20	9	100090	4
